Copyright (C) 2013-2015, Filipe Brandao
Build (method = -2)
  #dp: 2069
  Step-3' Graph: 99 vertices and 938 arcs (0.00s)
  Step-4' Graph: 98 vertices and 936 arcs (0.00s)
  #V4/#V3 = 0.99
  #A4/#A3 = 1.00
Ready! (0.00s)
Optimize a model with 137 rows, 937 columns and 2619 nonzeros
Found heuristic solution: objective 26
Presolve removed 17 rows and 18 columns
Presolve time: 0.01s
Presolved: 120 rows, 919 columns, 2575 nonzeros
Variable types: 0 continuous, 919 integer (674 binary)
Optimize a model with 120 rows, 919 columns and 2575 nonzeros
Presolved: 120 rows, 919 columns, 2575 nonzeros

Root barrier log...

Ordering time: 0.00s

Barrier statistics:
 AA' NZ     : 2.017e+03
 Factor NZ  : 4.874e+03
 Factor Ops : 2.662e+05 (less than 1 second per iteration)
 Threads    : 1

                  Objective                Residual
Iter       Primal          Dual         Primal    Dual     Compl     Time
   0   4.88731218e+02 -1.58938545e+03  2.19e+03 1.18e-01  7.86e+00     0s
   1   1.10176492e+02 -6.39499548e+02  3.47e+02 4.44e-16  1.39e+00     0s
   2   4.44571821e+01 -1.66128443e+02  3.21e+01 8.88e-16  1.93e-01     0s
   3   2.68519199e+01 -2.20087354e+01  3.43e+00 6.38e-16  3.28e-02     0s
   4   2.11719383e+01  5.24048502e+00  3.85e-01 9.99e-16  9.11e-03     0s
   5   2.01534465e+01  1.18563629e+01  2.16e-01 1.11e-15  4.66e-03     0s
   6   1.95861719e+01  1.54476943e+01  1.32e-01 9.51e-16  2.30e-03     0s
   7   1.88775887e+01  1.68725214e+01  3.59e-02 9.95e-16  1.10e-03     0s
   8   1.86268320e+01  1.73645961e+01  1.93e-02 1.05e-15  6.90e-04     0s
   9   1.84318318e+01  1.77175246e+01  8.22e-03 1.27e-15  3.89e-04     0s
  10   1.83114384e+01  1.79866378e+01  2.23e-03 1.22e-15  1.77e-04     0s
  11   1.82671024e+01  1.80814682e+01  7.76e-04 1.56e-15  1.01e-04     0s
  12   1.82477610e+01  1.81250709e+01  3.79e-04 1.41e-15  6.66e-05     0s
  13   1.82355965e+01  1.81675873e+01  1.96e-04 1.33e-15  3.69e-05     0s
  14   1.82298451e+01  1.81950277e+01  9.14e-05 1.28e-15  1.89e-05     0s
  15   1.82275032e+01  1.82040003e+01  5.35e-05 1.19e-15  1.28e-05     0s
  16   1.82260022e+01  1.82122005e+01  3.85e-05 1.37e-15  7.49e-06     0s
  17   1.82225530e+01  1.82153431e+01  9.23e-06 1.06e-15  3.91e-06     0s
  18   1.82219316e+01  1.82179021e+01  4.92e-06 1.10e-15  2.19e-06     0s
  19   1.82212485e+01  1.82196922e+01  1.59e-06 9.92e-16  8.45e-07     0s
  20   1.82208917e+01  1.82207728e+01  1.41e-07 1.04e-15  6.45e-08     0s
  21   1.82208495e+01  1.82208493e+01  5.34e-13 1.30e-15  8.23e-11     0s
  22   1.82208494e+01  1.82208494e+01  6.44e-11 9.34e-16  8.83e-17     0s

Barrier solved model in 22 iterations and 0.01 seconds
Optimal objective 1.82208494e+01


Root relaxation: objective 1.822085e+01, 76 iterations, 0.01 seconds

    Nodes    |    Current Node    |     Objective Bounds      |     Work
 Expl Unexpl |  Obj  Depth IntInf | Incumbent    BestBd   Gap | It/Node Time

     0     0   18.22085    0   45   26.00000   18.22085  29.9%     -    0s
H    0     0                      25.0000000   18.22085  27.1%     -    0s
H    0     0                      21.0000000   18.22085  13.2%     -    0s
H    0     0                      20.0000000   18.22085  8.90%     -    0s
H    0     0                      19.0000000   18.22085  4.10%     -    0s

Explored 0 nodes (139 simplex iterations) in 0.04 seconds
Thread count was 1 (of 4 available processors)

Optimal solution found (tolerance 0.00e+00)
Best objective 1.900000000000e+01, best bound 1.900000000000e+01, gap 0.0%
Preprocessing time: 0.00 seconds
Gurobi run time: 0.04 seconds
Total run time: 0.04 seconds
Objective: 19
Solution:
1 x [i=1]
1 x [i=2, i=24]
1 x [i=3, i=20]
1 x [i=3, i=21, i=39]
1 x [i=4, i=22, i=36]
1 x [i=5, i=28, i=31]
1 x [i=6, i=18]
1 x [i=7, i=16]
1 x [i=7, i=23, i=33]
1 x [i=7, i=32, i=36]
1 x [i=8, i=19, i=35]
1 x [i=9, i=13]
1 x [i=10, i=17, i=34]
1 x [i=10, i=28, i=30]
1 x [i=11, i=12, i=38]
1 x [i=11, i=15, i=36]
1 x [i=13, i=16, i=37]
1 x [i=14, i=25, i=29]
1 x [i=18, i=26, i=27]
